p cnf 102 349
1 2 -3 0
-1 -2 -3 0
1 -2 3 0
-1 2 3 0
-5 1 0
-5 4 0
-1 -4 5 0
8 -6 0
8 7 0
6 -7 -8 0
5 8 -9 0
-5 -8 -9 0
5 -8 9 0
-5 8 9 0
-10 3 0
-10 -9 0
-3 9 10 0
12 4 0
12 -3 0
-4 3 -12 0
13 -11 0
13 12 0
11 -12 -13 0
-10 -13 -14 0
10 13 -14 0
-10 13 14 0
10 -13 14 0
16 -2 0
16 15 0
2 -15 -16 0
18 17 0
18 -11 0
-17 11 -18 0
-16 18 -19 0
16 -18 -19 0
-16 -18 19 0
16 18 19 0
-21 -20 0
-21 -7 0
20 7 21 0
21 -22 0
-21 -22 0
-23 -19 0
-23 -22 0
19 22 23 0
24 -14 0
24 23 0
14 -23 -24 0
-11 -6 -26 0
11 6 -26 0
-11 6 26 0
11 -6 26 0
-28 26 0
-28 27 0
-26 -27 28 0
-29 -25 0
-29 28 0
25 -28 29 0
30 -24 0
30 29 0
24 -29 -30 0
-31 9 0
-31 -1 0
-9 1 31 0
32 31 0
32 -17 0
-31 17 -32 0
-33 30 0
-33 32 0
-30 -32 33 0
34 20 0
34 18 0
-20 -18 -34 0
35 34 0
35 -7 0
-34 7 -35 0
36 -11 0
36 8 0
11 -8 -36 0
36 -34 -37 0
-36 34 -37 0
36 34 37 0
-36 -34 37 0
38 35 0
38 37 0
-35 -37 -38 0
36 13 -39 0
-36 -13 -39 0
36 -13 39 0
-36 13 39 0
40 -39 0
40 -37 0
39 37 -40 0
-1 31 -41 0
1 -31 -41 0
-1 -31 41 0
1 31 41 0
42 40 0
42 -41 0
-40 41 -42 0
-43 38 0
-43 42 0
-38 -42 43 0
44 33 0
44 -43 0
-33 43 -44 0
46 7 0
46 45 0
-7 -45 -46 0
47 -6 0
47 26 0
6 -26 -47 0
-48 -26 0
-48 -47 0
26 47 48 0
-15 18 -49 0
15 -18 -49 0
-15 -18 49 0
15 18 49 0
48 -49 -50 0
-48 49 -50 0
48 49 50 0
-48 -49 50 0
51 -46 0
51 50 0
46 -50 -51 0
52 18 0
52 -1 0
-18 1 -52 0
-51 -52 -53 0
51 52 -53 0
-51 52 53 0
51 -52 53 0
55 -31 0
55 -54 0
31 54 -55 0
7 -55 -56 0
-7 55 -56 0
7 55 56 0
-7 -55 56 0
-53 -56 -57 0
53 56 -57 0
-53 56 57 0
53 -56 57 0
58 -35 0
58 -1 0
35 1 -58 0
59 57 0
59 -58 0
-57 58 -59 0
60 -22 0
60 -17 0
22 17 -60 0
59 -60 -61 0
-59 60 -61 0
59 60 61 0
-59 -60 61 0
62 -15 0
62 -2 0
15 2 -62 0
-63 -7 0
-63 -7 0
7 63 0
-64 -4 0
-64 -12 0
4 12 64 0
-64 45 -65 0
64 -45 -65 0
-64 -45 65 0
64 45 65 0
63 -65 -66 0
-63 65 -66 0
63 65 66 0
-63 -65 66 0
-67 27 0
-67 11 0
-27 -11 67 0
68 1 0
68 67 0
-1 -67 -68 0
69 28 0
69 17 0
-28 -17 -69 0
-70 68 0
-70 -69 0
-68 69 70 0
71 66 0
71 70 0
-66 -70 -71 0
73 4 0
73 72 0
-4 -72 -73 0
-74 -5 0
-74 -21 0
5 21 74 0
75 -73 0
75 -74 0
73 74 -75 0
-75 64 -76 0
75 -64 -76 0
-75 -64 76 0
75 64 76 0
77 21 0
77 -64 0
-21 64 -77 0
-78 15 0
-78 -5 0
-15 5 78 0
-77 78 -79 0
77 -78 -79 0
-77 -78 79 0
77 78 79 0
-80 -76 0
-80 79 0
76 -79 80 0
81 71 0
81 80 0
-71 -80 -81 0
-2 -4 -82 0
2 4 -82 0
-2 4 82 0
2 -4 82 0
83 -67 0
83 82 0
67 -82 -83 0
-84 19 0
-84 -82 0
-19 82 84 0
-83 -84 -85 0
83 84 -85 0
-83 84 85 0
83 -84 85 0
-81 -85 -86 0
81 85 -86 0
-81 85 86 0
81 -85 86 0
-87 62 0
-87 -86 0
-62 86 87 0
88 -61 0
88 87 0
61 -87 -88 0
-73 -4 -89 0
73 4 -89 0
-73 4 89 0
73 -4 89 0
-90 89 0
-90 27 0
-89 -27 90 0
91 34 0
91 17 0
-34 -17 -91 0
-92 90 0
-92 91 0
-90 -91 92 0
-9 20 -93 0
9 -20 -93 0
-9 -20 93 0
9 20 93 0
-94 -92 0
-94 -93 0
92 93 94 0
-95 -73 0
-95 -67 0
73 67 95 0
-96 -4 0
-96 -21 0
4 21 96 0
-97 -95 0
-97 -96 0
95 96 97 0
94 97 -98 0
-94 -97 -98 0
94 -97 98 0
-94 97 98 0
-54 8 -99 0
54 -8 -99 0
-54 -8 99 0
54 8 99 0
-100 -98 0
-100 -99 0
98 99 100 0
-88 100 -101 0
88 -100 -101 0
-88 -100 101 0
88 100 101 0
-44 101 -102 0
44 -101 -102 0
-44 -101 102 0
44 101 102 0
-84 4 0
-40 51 28 0
18 34 -77 -102 0
-11 -50 30 14 44 0
-20 -35 -85 0
-99 -73 -67 0
-85 10 -87 -39 56 -12 0
-41 -71 16 -9 0
91 37 0
-53 -102 19 0
-16 26 77 0
-35 33 -67 38 0
16 -30 -72 45 0
-38 78 44 19 -100 0
87 17 88 -96 0
-63 -73 -102 57 0
75 63 -78 42 0
28 94 0
93 27 13 47 0
50 43 83 100 0
35 -18 -2 39 0
-73 46 0
8 -59 -35 -19 0
82 -37 -75 -74 0
-25 2 -63 -90 86 -22 0
-96 18 -70 23 0
-66 72 -102 0
-4 22 100 65 25 49 0
78 -68 -63 5 -24 17 0
-37 -99 10 -80 0
-89 -63 -13 -7 0
22 26 -70 36 0
46 -13 -1 0
-80 58 59 -35 0
-13 -11 -72 0
-83 101 -8 -70 0
-58 7 0
83 -101 -30 26 0
-81 -76 -92 20 0
86 46 26 -54 0
101 -51 -25 86 0
-69 -71 0
64 -8 -72 31 27 -32 0
60 61 -21 0
-18 -2 0
-45 -5 -72 -68 0
56 69 -18 0
-19 41 6 0
84 67 -14 65 -44 0
67 12 -87 20 -23 35 0
92 81 -15 0
45 -19 -13 82 0
-81 -2 0
33 29 -85 0
20 53 -69 26 -19 -42 0
-59 7 28 75 0
2 57 -43 8 0
-87 -16 -94 0
102 0
